(declare-fun var0 () String)
(assert (str.in.re var0 (re.++ (re.* (re.union (str.to.re "W") (str.to.re "X"))) (re.++ (re.+ (re.+ (str.to.re "VV"))) (re.++ (re.union (re.* (str.to.re "SSS")) (re.union (str.to.re "TTT") (str.to.re "UUU"))) (re.++ (re.+ (re.union (str.to.re "QQ") (str.to.re "RR"))) (re.++ (re.* (re.* (str.to.re "PP"))) (re.++ (re.* (re.+ (str.to.re "OOO"))) (re.++ (re.* (re.+ (str.to.re "N"))) (re.++ (re.union (re.* (str.to.re "LL")) (re.+ (str.to.re "MMM"))) (re.++ (re.* (re.* (str.to.re "K"))) (re.++ (re.union (re.+ (str.to.re "III")) (re.* (str.to.re "JJJ"))) (re.++ (re.union (re.union (str.to.re "F") (str.to.re "GGG")) (re.* (str.to.re "H"))) (re.++ (re.union (re.+ (str.to.re "D")) (re.+ (str.to.re "E"))) (re.++ (re.union (re.+ (str.to.re "B")) (re.+ (str.to.re "CC"))) (re.++ (re.* (re.union (str.to.re "zzz") (str.to.re "AAA"))) (re.++ (re.+ (re.* (str.to.re "y"))) (re.++ (re.* (re.+ (str.to.re "x"))) (re.++ (re.union (re.* (str.to.re "vvv")) (re.+ (str.to.re "w"))) (re.++ (re.* (re.union (str.to.re "tt") (str.to.re "u"))) (re.++ (re.* (re.+ (str.to.re "ss"))) (re.++ (re.union (re.union (str.to.re "ooo") (str.to.re "p")) (re.union (str.to.re "qqq") (str.to.re "rrr"))) (re.++ (re.* (re.union (str.to.re "mmm") (str.to.re "n"))) (re.++ (re.+ (re.union (str.to.re "k") (str.to.re "ll"))) (re.++ (re.+ (re.+ (str.to.re "j"))) (re.++ (re.union (re.* (str.to.re "hh")) (re.* (str.to.re "i"))) (re.++ (re.+ (re.union (str.to.re "ff") (str.to.re "gg"))) (re.++ (re.union (re.* (str.to.re "cc")) (re.union (str.to.re "dd") (str.to.re "e"))) (re.++ (re.* (re.union (str.to.re "aaa") (str.to.re "b"))) (re.++ (re.+ (re.union (str.to.re "88") (str.to.re "999"))) (re.++ (re.+ (re.union (str.to.re "666") (str.to.re "777"))) (re.++ (re.* (re.+ (str.to.re "55"))) (re.++ (re.* (re.* (str.to.re "4"))) (re.++ (re.+ (re.+ (str.to.re "3"))) (re.++ (re.+ (re.union (str.to.re "1") (str.to.re "222"))) (re.++ (re.union (re.* (str.to.re "}}")) (re.union (str.to.re "~~") (str.to.re "000"))) (re.++ (re.+ (re.+ (str.to.re "||"))) (re.++ (re.* (re.* (str.to.re "{"))) (re.++ (re.* (re.* (str.to.re "```"))) (re.++ (re.+ (re.* (str.to.re "__"))) (re.++ (re.* (re.* (str.to.re "^^^"))) (re.++ (re.* (re.* (str.to.re "]]"))) (re.++ (re.union (re.union (str.to.re "@") (str.to.re "[[[")) (re.* (str.to.re "\\\\\\"))) (re.++ (re.* (re.union (str.to.re ">>>") (str.to.re "???"))) (re.++ (re.+ (re.* (str.to.re "=="))) (re.++ (re.union (re.* (str.to.re ";")) (re.+ (str.to.re "<<"))) (re.++ (re.* (re.* (str.to.re ":"))) (re.++ (re.union (re.+ (str.to.re "...")) (re.* (str.to.re "//"))) (re.++ (re.+ (re.union (str.to.re ",,,") (str.to.re "-"))) (re.++ (re.* (re.+ (str.to.re "+++"))) (re.++ (re.* (re.* (str.to.re "**"))) (re.++ (re.* (re.+ (str.to.re "))"))) (re.++ (re.* (re.+ (str.to.re "("))) (re.++ (re.union (re.+ (str.to.re "&")) (re.* (str.to.re "'"))) (re.++ (re.union (re.* (str.to.re "##")) (re.union (str.to.re "$$") (str.to.re "%"))) (re.++ (re.* (re.union (str.to.re "!") (str.to.re """"))) (re.++ (re.union (re.* (str.to.re "X")) (re.union (str.to.re "Y") (str.to.re "Z"))) (re.++ (re.+ (re.+ (str.to.re "WW"))) (re.++ (re.union (re.union (str.to.re "TTT") (str.to.re "UUU")) (re.* (str.to.re "V"))) (re.++ (re.* (re.* (str.to.re "S"))) (re.++ (re.* (re.+ (str.to.re "RRR"))) (re.++ (re.* (re.+ (str.to.re "Q"))) (re.++ (re.+ (re.* (str.to.re "P"))) (re.++ (re.* (re.* (str.to.re "O"))) (re.++ (re.+ (re.+ (str.to.re "NNN"))) (re.++ (re.+ (re.* (str.to.re "MMM"))) (re.++ (re.* (re.+ (str.to.re "L"))) (re.++ (re.* (re.+ (str.to.re "KKK"))) (re.++ (re.union (re.+ (str.to.re "I")) (re.+ (str.to.re "J"))) (re.++ (re.union (re.* (str.to.re "FFF")) (re.union (str.to.re "GG") (str.to.re "HHH"))) (re.++ (re.* (re.+ (str.to.re "EE"))) (re.++ (re.* (re.union (str.to.re "CC") (str.to.re "DD"))) (re.++ (re.* (re.union (str.to.re "AA") (str.to.re "BB"))) (re.++ (re.+ (re.union (str.to.re "yy") (str.to.re "zz"))) (re.++ (re.* (re.+ (str.to.re "x"))) (re.++ (re.* (re.* (str.to.re "ww"))) (re.++ (re.* (re.union (str.to.re "uuu") (str.to.re "vv"))) (re.++ (re.union (re.union (str.to.re "r") (str.to.re "sss")) (re.* (str.to.re "t"))) (re.++ (re.+ (re.+ (str.to.re "qq"))) (re.++ (re.+ (re.union (str.to.re "oo") (str.to.re "p"))) (re.++ (re.union (re.union (str.to.re "kkk") (str.to.re "lll")) (re.union (str.to.re "mmm") (str.to.re "n"))) (re.++ (re.* (re.+ (str.to.re "j"))) (re.++ (re.* (re.+ (str.to.re "iii"))) (re.++ (re.+ (re.union (str.to.re "ggg") (str.to.re "h"))) (re.++ (re.union (re.* (str.to.re "ddd")) (re.union (str.to.re "ee") (str.to.re "ff"))) (re.++ (re.union (re.+ (str.to.re "bb")) (re.* (str.to.re "ccc"))) (re.++ (re.union (re.union (str.to.re "888") (str.to.re "99")) (re.* (str.to.re "aa"))) (re.++ (re.union (re.* (str.to.re "555")) (re.union (str.to.re "66") (str.to.re "77"))) (re.++ (re.union (re.* (str.to.re "2")) (re.union (str.to.re "3") (str.to.re "444"))) (re.++ (re.union (re.+ (str.to.re "~~")) (re.union (str.to.re "000") (str.to.re "111"))) (re.++ (re.+ (re.* (str.to.re "}"))) (re.++ (re.union (re.+ (str.to.re "```")) (re.union (str.to.re "{") (str.to.re "||"))) (re.++ (re.union (re.+ (str.to.re "]")) (re.union (str.to.re "^^") (str.to.re "___"))) (re.++ (re.+ (re.union (str.to.re "[[") (str.to.re "\\"))) (re.++ (re.+ (re.* (str.to.re "@@"))) (re.++ (re.union (re.* (str.to.re ">")) (re.* (str.to.re "???"))) (re.++ (re.union (re.union (str.to.re ";;") (str.to.re "<")) (re.* (str.to.re "=="))) (re.++ (re.* (re.union (str.to.re "//") (str.to.re "::"))) (re.++ (re.union (re.union (str.to.re ",") (str.to.re "--")) (re.+ (str.to.re "."))) (re.++ (re.+ (re.union (str.to.re "***") (str.to.re "+"))) (re.++ (re.* (re.* (str.to.re ")"))) (re.++ (re.union (re.* (str.to.re "'''")) (re.* (str.to.re "(("))) (re.++ (re.union (re.+ (str.to.re "%%")) (re.+ (str.to.re "&"))) (re.++ (re.union (re.* (str.to.re "###")) (re.+ (str.to.re "$"))) (re.++ (re.union (re.+ (str.to.re "!!")) (re.+ (str.to.re """"""))) (re.++ (re.+ (re.union (str.to.re "Y") (str.to.re "ZZ"))) (re.++ (re.union (re.+ (str.to.re "WW")) (re.* (str.to.re "X"))) (re.++ (re.* (re.+ (str.to.re "VVV"))) (re.++ (re.* (re.+ (str.to.re "UU"))) (re.++ (re.union (re.+ (str.to.re "S")) (re.* (str.to.re "TTT"))) (re.++ (re.+ (re.+ (str.to.re "R"))) (re.++ (re.* (re.union (str.to.re "PPP") (str.to.re "Q"))) (re.++ (re.* (re.union (str.to.re "NNN") (str.to.re "OO"))) (re.++ (re.+ (re.union (str.to.re "LL") (str.to.re "MMM"))) (re.++ (re.+ (re.* (str.to.re "KKK"))) (re.++ (re.* (re.+ (str.to.re "J"))) (re.++ (re.* (re.* (str.to.re "I"))) (re.++ (re.union (re.* (str.to.re "G")) (re.+ (str.to.re "HHH"))) (re.++ (re.+ (re.union (str.to.re "E") (str.to.re "F"))) (re.++ (re.+ (re.* (str.to.re "DD"))) (re.++ (re.* (re.* (str.to.re "CCC"))) (re.++ (re.* (re.+ (str.to.re "BB"))) (re.++ (re.union (re.* (str.to.re "y")) (re.union (str.to.re "z") (str.to.re "A"))) (re.++ (re.+ (re.+ (str.to.re "xx"))) (re.++ (re.+ (re.union (str.to.re "vv") (str.to.re "www"))) (re.++ (re.union (re.union (str.to.re "ss") (str.to.re "ttt")) (re.+ (str.to.re "u"))) (re.++ (re.+ (re.+ (str.to.re "rr"))) (re.++ (re.* (re.* (str.to.re "qq"))) (re.++ (re.+ (re.union (str.to.re "oo") (str.to.re "pp"))) (re.++ (re.union (re.+ (str.to.re "mmm")) (re.+ (str.to.re "nn"))) (re.++ (re.union (re.union (str.to.re "i") (str.to.re "j")) (re.union (str.to.re "kkk") (str.to.re "l"))) (re.++ (re.union (re.* (str.to.re "ggg")) (re.+ (str.to.re "hhh"))) (re.++ (re.+ (re.* (str.to.re "f"))) (re.++ (re.+ (re.union (str.to.re "d") (str.to.re "eee"))) (re.++ (re.* (re.+ (str.to.re "cc"))) (re.++ (re.* (re.* (str.to.re "bb"))) (re.++ (re.+ (re.* (str.to.re "a"))) (re.++ (re.* (re.+ (str.to.re "99"))) (re.++ (re.union (re.+ (str.to.re "777")) (re.+ (str.to.re "888"))) (re.++ (re.union (re.* (str.to.re "555")) (re.+ (str.to.re "66"))) (re.++ (re.* (re.+ (str.to.re "444"))) (re.++ (re.union (re.+ (str.to.re "2")) (re.* (str.to.re "33"))) (re.++ (re.union (re.union (str.to.re "}}}") (str.to.re "~")) (re.union (str.to.re "00") (str.to.re "111"))) (re.++ (re.union (re.+ (str.to.re "{")) (re.+ (str.to.re "|||"))) (re.++ (re.+ (re.* (str.to.re "```"))) (re.++ (re.union (re.+ (str.to.re "^")) (re.+ (str.to.re "_"))) (re.++ (re.union (re.+ (str.to.re "\\\\")) (re.+ (str.to.re "]]]"))) (re.++ (re.* (re.* (str.to.re "[[["))) (re.++ (re.union (re.+ (str.to.re ">")) (re.union (str.to.re "??") (str.to.re "@@"))) (re.++ (re.* (re.union (str.to.re "<<<") (str.to.re "=="))) (re.++ (re.union (re.union (str.to.re "...") (str.to.re "///")) (re.union (str.to.re ":::") (str.to.re ";;"))) (re.++ (re.union (re.* (str.to.re ",,")) (re.* (str.to.re "---"))) (re.++ (re.+ (re.+ (str.to.re "+++"))) (re.++ (re.union (re.+ (str.to.re ")))")) (re.+ (str.to.re "*"))) (re.++ (re.* (re.* (str.to.re "((("))) (re.++ (re.* (re.+ (str.to.re "''"))) (re.++ (re.+ (re.+ (str.to.re "&"))) (re.++ (re.union (re.* (str.to.re "$$")) (re.* (str.to.re "%"))) (re.++ (re.* (re.union (str.to.re """""") (str.to.re "###"))) (re.++ (re.+ (re.union (str.to.re "ZZZ") (str.to.re "!!"))) (re.++ (re.+ (re.union (str.to.re "X") (str.to.re "Y"))) (re.++ (re.union (re.union (str.to.re "UU") (str.to.re "VV")) (re.* (str.to.re "WW"))) (re.++ (re.+ (re.union (str.to.re "S") (str.to.re "TT"))) (re.++ (re.+ (re.* (str.to.re "R"))) (re.++ (re.union (re.union (str.to.re "O") (str.to.re "PP")) (re.* (str.to.re "Q"))) (re.++ (re.union (re.* (str.to.re "LLL")) (re.union (str.to.re "M") (str.to.re "NNN"))) (re.++ (re.+ (re.union (str.to.re "JJJ") (str.to.re "KKK"))) (re.++ (re.union (re.union (str.to.re "GGG") (str.to.re "HHH")) (re.* (str.to.re "III"))) (re.++ (re.union (re.* (str.to.re "EE")) (re.+ (str.to.re "FF"))) (re.++ (re.+ (re.union (str.to.re "CCC") (str.to.re "DDD"))) (re.++ (re.union (re.+ (str.to.re "z")) (re.union (str.to.re "AA") (str.to.re "BB"))) (re.++ (re.* (re.union (str.to.re "xxx") (str.to.re "yyy"))) (re.++ (re.* (re.+ (str.to.re "ww"))) (re.++ (re.union (re.* (str.to.re "uuu")) (re.* (str.to.re "vvv"))) (re.++ (re.union (re.+ (str.to.re "s")) (re.* (str.to.re "ttt"))) (re.++ (re.* (re.* (str.to.re "r"))) (re.++ (re.+ (re.union (str.to.re "p") (str.to.re "qqq"))) (re.++ (re.* (re.+ (str.to.re "o"))) (re.++ (re.* (re.union (str.to.re "m") (str.to.re "nn"))) (re.++ (re.+ (re.union (str.to.re "k") (str.to.re "l"))) (re.++ (re.* (re.* (str.to.re "j"))) (re.++ (re.union (re.union (str.to.re "ggg") (str.to.re "h")) (re.+ (str.to.re "iii"))) (re.++ (re.union (re.* (str.to.re "eee")) (re.+ (str.to.re "fff"))) (re.++ (re.+ (re.union (str.to.re "cc") (str.to.re "dd"))) (re.++ (re.+ (re.+ (str.to.re "b"))) (re.++ (re.* (re.* (str.to.re "aaa"))) (re.++ (re.* (re.+ (str.to.re "999"))) (re.++ (re.union (re.union (str.to.re "66") (str.to.re "77")) (re.* (str.to.re "8"))) (re.++ (re.+ (re.union (str.to.re "44") (str.to.re "55"))) (re.++ (re.+ (re.* (str.to.re "3"))) (re.++ (re.* (re.union (str.to.re "111") (str.to.re "22"))) (re.* (re.+ (str.to.re "000"))))))))))))))))))))))))))))))))))))))))))))))))))))))))))))))))))))))))))))))))))))))))))))))))))))))))))))))))))))))))))))))))))))))))))))))))))))))))))))))))))))))))))))))))))))))))))))))))))
(check-sat)